p edge 100 1444
e 1 5
e 1 6
e 1 9
e 1 10
e 1 11
e 1 15
e 1 26
e 1 28
e 1 29
e 1 31
e 1 37
e 1 38
e 1 39
e 1 40
e 1 42
e 1 46
e 1 47
e 1 49
e 1 50
e 1 55
e 1 60
e 1 61
e 1 65
e 1 69
e 1 73
e 1 77
e 1 79
e 1 82
e 1 83
e 1 84
e 1 85
e 1 92
e 1 93
e 1 95
e 1 97
e 1 100
e 2 5
e 2 6
e 2 9
e 2 15
e 2 23
e 2 25
e 2 27
e 2 28
e 2 29
e 2 31
e 2 33
e 2 34
e 2 36
e 2 37
e 2 38
e 2 45
e 2 49
e 2 52
e 2 55
e 2 57
e 2 60
e 2 61
e 2 77
e 2 80
e 2 82
e 2 84
e 2 89
e 2 91
e 2 94
e 2 95
e 3 10
e 3 11
e 3 14
e 3 17
e 3 19
e 3 27
e 3 28
e 3 31
e 3 36
e 3 37
e 3 39
e 3 41
e 3 47
e 3 50
e 3 52
e 3 54
e 3 55
e 3 58
e 3 67
e 3 68
e 3 69
e 3 72
e 3 74
e 3 75
e 3 86
e 3 92
e 3 94
e 3 97
e 3 98
e 4 10
e 4 13
e 4 17
e 4 18
e 4 21
e 4 22
e 4 25
e 4 29
e 4 34
e 4 35
e 4 39
e 4 40
e 4 41
e 4 46
e 4 47
e 4 60
e 4 61
e 4 68
e 4 69
e 4 70
e 4 74
e 4 79
e 4 81
e 4 83
e 4 90
e 4 99
e 5 6
e 5 10
e 5 11
e 5 12
e 5 13
e 5 15
e 5 16
e 5 17
e 5 19
e 5 20
e 5 24
e 5 26
e 5 28
e 5 34
e 5 38
e 5 40
e 5 41
e 5 43
e 5 45
e 5 52
e 5 54
e 5 57
e 5 60
e 5 67
e 5 71
e 5 74
e 5 75
e 5 81
e 5 86
e 5 87
e 5 88
e 5 93
e 5 99
e 6 7
e 6 12
e 6 16
e 6 17
e 6 18
e 6 19
e 6 23
e 6 26
e 6 28
e 6 29
e 6 35
e 6 40
e 6 42
e 6 45
e 6 49
e 6 52
e 6 58
e 6 64
e 6 69
e 6 75
e 6 83
e 6 86
e 6 93
e 6 94
e 7 8
e 7 10
e 7 21
e 7 26
e 7 35
e 7 37
e 7 42
e 7 44
e 7 53
e 7 55
e 7 56
e 7 59
e 7 61
e 7 64
e 7 68
e 7 77
e 7 96
e 8 10
e 8 12
e 8 13
e 8 20
e 8 21
e 8 23
e 8 25
e 8 28
e 8 33
e 8 34
e 8 35
e 8 38
e 8 39
e 8 40
e 8 44
e 8 45
e 8 46
e 8 49
e 8 57
e 8 58
e 8 67
e 8 68
e 8 69
e 8 72
e 8 77
e 8 78
e 8 87
e 8 89
e 8 91
e 8 92
e 8 93
e 8 94
e 8 98
e 8 99
e 8 100
e 9 12
e 9 13
e 9 24
e 9 27
e 9 31
e 9 33
e 9 36
e 9 39
e 9 41
e 9 42
e 9 43
e 9 50
e 9 56
e 9 57
e 9 65
e 9 69
e 9 73
e 9 78
e 9 79
e 9 83
e 9 94
e 10 11
e 10 14
e 10 16
e 10 21
e 10 22
e 10 23
e 10 29
e 10 30
e 10 39
e 10 40
e 10 45
e 10 46
e 10 49
e 10 51
e 10 56
e 10 57
e 10 59
e 10 62
e 10 63
e 10 73
e 10 74
e 10 77
e 10 82
e 10 90
e 10 92
e 10 94
e 10 96
e 10 98
e 10 99
e 10 100
e 11 12
e 11 14
e 11 17
e 11 25
e 11 26
e 11 27
e 11 29
e 11 30
e 11 38
e 11 39
e 11 42
e 11 52
e 11 56
e 11 61
e 11 62
e 11 64
e 11 65
e 11 67
e 11 68
e 11 71
e 11 72
e 11 73
e 11 74
e 11 81
e 11 83
e 11 90
e 11 91
e 11 94
e 11 100
e 12 16
e 12 18
e 12 22
e 12 23
e 12 35
e 12 42
e 12 47
e 12 49
e 12 50
e 12 53
e 12 61
e 12 67
e 12 71
e 12 74
e 12 75
e 12 77
e 12 80
e 12 81
e 12 82
e 12 84
e 12 87
e 12 89
e 12 95
e 13 15
e 13 17
e 13 19
e 13 23
e 13 40
e 13 42
e 13 44
e 13 46
e 13 49
e 13 50
e 13 64
e 13 66
e 13 70
e 13 71
e 13 72
e 13 73
e 13 75
e 13 78
e 13 95
e 13 100
e 14 17
e 14 19
e 14 23
e 14 27
e 14 30
e 14 35
e 14 36
e 14 39
e 14 44
e 14 45
e 14 49
e 14 50
e 14 53
e 14 57
e 14 67
e 14 68
e 14 72
e 14 77
e 14 82
e 14 89
e 14 92
e 14 94
e 14 95
e 14 96
e 15 21
e 15 23
e 15 25
e 15 27
e 15 29
e 15 31
e 15 33
e 15 34
e 15 36
e 15 39
e 15 41
e 15 42
e 15 44
e 15 48
e 15 49
e 15 50
e 15 51
e 15 56
e 15 59
e 15 63
e 15 64
e 15 68
e 15 73
e 15 83
e 15 84
e 15 86
e 15 91
e 15 93
e 15 95
e 15 99
e 15 100
e 16 21
e 16 22
e 16 25
e 16 33
e 16 38
e 16 41
e 16 45
e 16 51
e 16 52
e 16 53
e 16 54
e 16 70
e 16 71
e 16 73
e 16 78
e 16 82
e 16 89
e 16 92
e 16 98
e 16 99
e 17 22
e 17 30
e 17 31
e 17 35
e 17 39
e 17 46
e 17 56
e 17 57
e 17 58
e 17 59
e 17 64
e 17 67
e 17 70
e 17 71
e 17 80
e 17 81
e 17 83
e 17 86
e 17 88
e 17 91
e 17 98
e 17 99
e 18 22
e 18 27
e 18 33
e 18 39
e 18 41
e 18 43
e 18 45
e 18 52
e 18 55
e 18 59
e 18 65
e 18 66
e 18 69
e 18 72
e 18 79
e 18 85
e 18 88
e 18 91
e 18 92
e 18 99
e 19 26
e 19 28
e 19 30
e 19 31
e 19 44
e 19 47
e 19 48
e 19 51
e 19 56
e 19 65
e 19 66
e 19 70
e 19 72
e 19 79
e 19 80
e 19 82
e 19 83
e 19 84
e 19 88
e 19 89
e 19 90
e 19 94
e 19 96
e 19 97
e 19 99
e 20 24
e 20 25
e 20 30
e 20 34
e 20 42
e 20 43
e 20 50
e 20 55
e 20 57
e 20 61
e 20 64
e 20 65
e 20 68
e 20 69
e 20 74
e 20 77
e 20 79
e 20 80
e 20 81
e 20 85
e 20 87
e 20 90
e 20 93
e 20 95
e 21 22
e 21 31
e 21 33
e 21 35
e 21 44
e 21 47
e 21 49
e 21 53
e 21 58
e 21 59
e 21 64
e 21 65
e 21 67
e 21 68
e 21 75
e 21 77
e 21 79
e 21 81
e 21 88
e 21 89
e 21 91
e 21 93
e 21 94
e 21 95
e 22 25
e 22 27
e 22 30
e 22 33
e 22 34
e 22 35
e 22 36
e 22 41
e 22 50
e 22 52
e 22 53
e 22 55
e 22 63
e 22 68
e 22 69
e 22 70
e 22 71
e 22 72
e 22 78
e 22 79
e 22 82
e 22 83
e 22 84
e 22 94
e 22 96
e 23 25
e 23 26
e 23 34
e 23 37
e 23 52
e 23 55
e 23 58
e 23 59
e 23 62
e 23 64
e 23 67
e 23 72
e 23 74
e 23 78
e 23 79
e 23 86
e 23 87
e 23 90
e 23 94
e 23 96
e 23 97
e 23 98
e 23 99
e 24 30
e 24 31
e 24 33
e 24 40
e 24 47
e 24 48
e 24 51
e 24 54
e 24 55
e 24 56
e 24 59
e 24 65
e 24 72
e 24 75
e 24 76
e 24 84
e 24 85
e 24 94
e 24 97
e 24 98
e 24 99
e 24 100
e 25 26
e 25 32
e 25 36
e 25 38
e 25 40
e 25 41
e 25 44
e 25 47
e 25 50
e 25 53
e 25 54
e 25 56
e 25 59
e 25 62
e 25 66
e 25 72
e 25 77
e 25 78
e 25 83
e 25 87
e 25 88
e 25 92
e 25 93
e 25 100
e 26 28
e 26 30
e 26 31
e 26 33
e 26 34
e 26 35
e 26 37
e 26 50
e 26 53
e 26 54
e 26 56
e 26 58
e 26 60
e 26 73
e 26 75
e 26 76
e 26 77
e 26 87
e 26 89
e 26 90
e 26 91
e 26 93
e 26 96
e 26 99
e 27 30
e 27 33
e 27 34
e 27 41
e 27 43
e 27 45
e 27 47
e 27 50
e 27 51
e 27 53
e 27 54
e 27 61
e 27 62
e 27 69
e 27 72
e 27 75
e 27 76
e 27 77
e 27 80
e 27 82
e 27 85
e 27 87
e 27 90
e 27 95
e 27 98
e 27 100
e 28 30
e 28 35
e 28 41
e 28 42
e 28 44
e 28 45
e 28 49
e 28 50
e 28 56
e 28 57
e 28 58
e 28 64
e 28 65
e 28 66
e 28 69
e 28 70
e 28 75
e 28 77
e 28 79
e 28 82
e 28 85
e 28 90
e 28 94
e 28 100
e 29 33
e 29 34
e 29 41
e 29 45
e 29 47
e 29 50
e 29 52
e 29 55
e 29 56
e 29 57
e 29 58
e 29 60
e 29 64
e 29 65
e 29 76
e 29 79
e 29 81
e 29 91
e 29 93
e 29 95
e 29 99
e 30 34
e 30 36
e 30 37
e 30 44
e 30 47
e 30 52
e 30 56
e 30 58
e 30 59
e 30 61
e 30 62
e 30 64
e 30 65
e 30 69
e 30 75
e 30 77
e 30 81
e 30 84
e 30 86
e 30 95
e 30 96
e 31 35
e 31 37
e 31 39
e 31 40
e 31 41
e 31 43
e 31 47
e 31 49
e 31 53
e 31 57
e 31 64
e 31 68
e 31 70
e 31 77
e 31 78
e 31 79
e 31 84
e 31 87
e 31 89
e 31 94
e 32 38
e 32 46
e 32 54
e 32 57
e 32 61
e 32 65
e 32 69
e 32 70
e 32 72
e 32 76
e 32 77
e 32 78
e 32 80
e 32 86
e 32 94
e 32 97
e 32 100
e 33 34
e 33 35
e 33 41
e 33 43
e 33 47
e 33 54
e 33 58
e 33 63
e 33 70
e 33 71
e 33 76
e 33 77
e 33 78
e 33 79
e 33 83
e 33 84
e 33 86
e 33 89
e 33 91
e 33 94
e 33 95
e 33 99
e 34 38
e 34 42
e 34 43
e 34 44
e 34 45
e 34 47
e 34 48
e 34 55
e 34 58
e 34 61
e 34 63
e 34 64
e 34 68
e 34 69
e 34 71
e 34 73
e 34 78
e 34 79
e 34 80
e 34 81
e 34 82
e 34 84
e 34 85
e 34 93
e 34 95
e 34 97
e 34 98
e 35 40
e 35 41
e 35 47
e 35 53
e 35 58
e 35 59
e 35 64
e 35 68
e 35 75
e 35 77
e 35 80
e 35 83
e 35 85
e 35 87
e 35 92
e 35 99
e 36 44
e 36 46
e 36 54
e 36 59
e 36 71
e 36 76
e 36 77
e 36 78
e 36 82
e 36 86
e 36 92
e 36 93
e 36 96
e 36 99
e 37 38
e 37 40
e 37 46
e 37 51
e 37 53
e 37 54
e 37 55
e 37 58
e 37 60
e 37 61
e 37 65
e 37 67
e 37 73
e 37 74
e 37 76
e 37 77
e 37 83
e 37 84
e 37 95
e 37 98
e 38 40
e 38 46
e 38 49
e 38 54
e 38 55
e 38 56
e 38 61
e 38 63
e 38 64
e 38 69
e 38 71
e 38 72
e 38 73
e 38 80
e 38 81
e 38 83
e 38 87
e 38 91
e 38 100
e 39 46
e 39 49
e 39 52
e 39 61
e 39 62
e 39 67
e 39 73
e 39 75
e 39 76
e 39 84
e 39 85
e 39 90
e 39 91
e 39 96
e 39 97
e 40 43
e 40 44
e 40 48
e 40 52
e 40 53
e 40 56
e 40 63
e 40 80
e 40 81
e 40 85
e 40 86
e 40 88
e 40 91
e 40 92
e 41 42
e 41 50
e 41 51
e 41 56
e 41 63
e 41 65
e 41 74
e 41 75
e 41 77
e 41 80
e 41 82
e 41 85
e 41 86
e 41 97
e 42 50
e 42 52
e 42 60
e 42 61
e 42 77
e 42 78
e 42 85
e 42 89
e 42 90
e 42 100
e 43 45
e 43 46
e 43 47
e 43 50
e 43 52
e 43 53
e 43 56
e 43 57
e 43 61
e 43 63
e 43 74
e 43 75
e 43 76
e 43 81
e 43 82
e 43 84
e 43 87
e 43 89
e 43 90
e 43 98
e 43 100
e 44 47
e 44 53
e 44 57
e 44 58
e 44 62
e 44 65
e 44 77
e 44 82
e 44 83
e 44 85
e 44 96
e 44 97
e 44 98
e 44 100
e 45 46
e 45 48
e 45 52
e 45 53
e 45 54
e 45 56
e 45 68
e 45 70
e 45 73
e 45 76
e 45 78
e 45 81
e 45 83
e 45 90
e 45 93
e 45 94
e 45 95
e 45 97
e 46 48
e 46 49
e 46 52
e 46 55
e 46 57
e 46 70
e 46 77
e 46 83
e 46 87
e 46 89
e 46 92
e 46 95
e 46 100
e 47 48
e 47 49
e 47 50
e 47 53
e 47 55
e 47 57
e 47 60
e 47 61
e 47 64
e 47 66
e 47 67
e 47 68
e 47 77
e 47 85
e 47 87
e 48 55
e 48 72
e 48 76
e 48 83
e 48 85
e 48 89
e 48 92
e 48 94
e 48 100
e 49 64
e 49 66
e 49 71
e 49 73
e 49 80
e 49 81
e 49 84
e 49 87
e 49 90
e 49 92
e 49 94
e 50 51
e 50 59
e 50 64
e 50 65
e 50 66
e 50 67
e 50 74
e 50 75
e 50 77
e 50 82
e 50 85
e 50 86
e 50 89
e 50 92
e 50 95
e 51 69
e 51 71
e 51 76
e 51 78
e 51 79
e 51 80
e 51 81
e 51 84
e 51 87
e 51 90
e 51 92
e 51 95
e 51 99
e 52 56
e 52 59
e 52 62
e 52 65
e 52 68
e 52 73
e 52 75
e 52 76
e 52 77
e 52 79
e 52 80
e 52 85
e 52 88
e 52 89
e 52 91
e 52 97
e 52 99
e 52 100
e 53 57
e 53 65
e 53 67
e 53 71
e 53 75
e 53 78
e 53 79
e 53 82
e 53 86
e 53 91
e 54 57
e 54 59
e 54 60
e 54 71
e 54 72
e 54 74
e 54 82
e 54 86
e 54 87
e 54 94
e 54 95
e 54 100
e 55 60
e 55 61
e 55 64
e 55 66
e 55 68
e 55 69
e 55 70
e 55 71
e 55 73
e 55 77
e 55 78
e 55 86
e 55 90
e 55 92
e 55 93
e 55 95
e 55 97
e 55 98
e 56 58
e 56 59
e 56 60
e 56 66
e 56 70
e 56 78
e 56 84
e 56 93
e 56 98
e 57 59
e 57 61
e 57 62
e 57 67
e 57 69
e 57 72
e 57 73
e 57 75
e 57 79
e 57 81
e 57 87
e 57 88
e 57 89
e 57 90
e 57 91
e 57 95
e 58 59
e 58 60
e 58 65
e 58 66
e 58 73
e 58 74
e 58 76
e 58 82
e 58 84
e 58 85
e 58 86
e 58 87
e 58 93
e 58 99
e 59 60
e 59 62
e 59 69
e 59 73
e 59 74
e 59 76
e 59 79
e 59 81
e 59 82
e 59 86
e 59 97
e 59 99
e 59 100
e 60 61
e 60 62
e 60 67
e 60 70
e 60 72
e 60 74
e 60 82
e 60 91
e 60 95
e 61 73
e 61 74
e 61 76
e 61 77
e 61 78
e 61 80
e 61 83
e 61 84
e 61 88
e 61 90
e 61 95
e 61 98
e 62 63
e 62 65
e 62 73
e 62 74
e 62 82
e 62 89
e 62 93
e 63 68
e 63 69
e 63 70
e 63 71
e 63 76
e 63 77
e 63 78
e 63 79
e 63 80
e 63 81
e 63 82
e 63 84
e 63 86
e 63 89
e 63 94
e 63 99
e 63 100
e 64 68
e 64 69
e 64 76
e 64 78
e 64 80
e 64 83
e 64 85
e 64 88
e 64 90
e 64 92
e 64 93
e 64 94
e 65 66
e 65 67
e 65 78
e 65 86
e 65 92
e 65 96
e 65 100
e 66 71
e 66 72
e 66 74
e 66 76
e 66 87
e 66 94
e 67 70
e 67 71
e 67 72
e 67 73
e 67 76
e 67 77
e 67 81
e 67 84
e 67 90
e 67 93
e 67 98
e 68 71
e 68 72
e 68 77
e 68 80
e 68 82
e 68 88
e 68 89
e 68 92
e 68 93
e 68 95
e 68 96
e 69 70
e 69 71
e 69 72
e 69 73
e 69 84
e 69 96
e 69 97
e 69 100
e 70 72
e 70 75
e 70 77
e 70 83
e 70 84
e 70 86
e 70 92
e 70 93
e 70 95
e 70 97
e 70 99
e 70 100
e 71 86
e 71 87
e 71 88
e 71 90
e 71 93
e 71 94
e 71 95
e 71 97
e 72 75
e 72 76
e 72 79
e 72 81
e 72 85
e 72 87
e 72 88
e 72 94
e 72 95
e 72 100
e 73 74
e 73 80
e 73 88
e 73 89
e 73 93
e 73 95
e 73 100
e 74 78
e 74 81
e 74 84
e 74 89
e 74 94
e 74 95
e 75 80
e 75 81
e 75 83
e 75 84
e 75 87
e 75 88
e 75 91
e 75 98
e 75 99
e 75 100
e 76 78
e 76 85
e 76 89
e 76 94
e 77 83
e 77 84
e 77 88
e 77 96
e 78 81
e 78 87
e 78 88
e 78 91
e 78 92
e 78 95
e 78 98
e 78 100
e 79 87
e 79 93
e 79 96
e 79 98
e 80 84
e 80 85
e 80 87
e 80 88
e 80 93
e 80 94
e 80 95
e 80 97
e 80 98
e 81 82
e 81 85
e 81 88
e 81 91
e 81 94
e 81 96
e 81 100
e 82 84
e 82 85
e 82 87
e 82 91
e 82 93
e 82 95
e 82 96
e 82 97
e 82 98
e 82 99
e 83 88
e 83 89
e 83 94
e 83 96
e 83 98
e 84 86
e 84 89
e 84 92
e 84 93
e 85 87
e 85 94
e 85 95
e 85 96
e 86 90
e 86 93
e 87 88
e 87 90
e 87 94
e 87 100
e 88 89
e 88 91
e 88 92
e 88 96
e 88 97
e 88 100
e 89 92
e 90 100
e 91 92
e 91 93
e 91 94
e 92 98
e 93 95
e 93 97
e 94 95
e 94 97
e 94 98
e 95 96
e 95 99
e 95 100
e 96 97
e 96 98
e 96 99
e 97 98
e 97 100
e 98 99
